NAME : airline78.pruned_global_4.-186273463.tour
COMMENT : Length = -186273463
TYPE : TOUR
DIMENSION : 29
TOUR_SECTION
28
26
24
22
15
11
9
7
5
8
13
2
1
4
3
18
19
17
6
10
12
21
20
14
16
23
25
27
29
-1
EOF
